*NODE, NSET=NALL
1, 0.0, 0.0, 0.0
2, 5.0, 0.0, 0.0
3, 5.0, 4.0, 0.0
4, 0.0, 4.0, 0.0
5, 0.0, 0.0, 3.0
6, 5.0, 0.0, 3.0
7, 5.0, 4.0, 3.0
8, 0.0, 4.0, 3.0
*ELEMENT, TYPE=B31, ELSET=COLUMNS
1, 1, 5
2, 2, 6
3, 3, 7
4, 4, 8
*ELEMENT, TYPE=B31, ELSET=BEAMS
5, 5, 6
6, 6, 7
7, 7, 8
8, 8, 5
*BEAM SECTION, ELSET=COLUMNS, MATERIAL=STEEL, SECTION=RECT
0.35, 0.35
0.0, 1.0, 0.0
*BEAM SECTION, ELSET=BEAMS, MATERIAL=STEEL, SECTION=RECT
0.25, 0.40
0.0, 0.0, 1.0
*MATERIAL, NAME=STEEL
*ELASTIC
210000000000.0, 0.3
*BOUNDARY
1, 1, 6, 0.0
2, 1, 6, 0.0
3, 1, 6, 0.0
4, 1, 6, 0.0
*STEP
*STATIC
*CLOAD
5, 1, 20000.0
6, 1, 20000.0
5, 3, -15000.0
6, 3, -15000.0
7, 3, -15000.0
8, 3, -15000.0
*NODE PRINT, NSET=NALL
U
*EL FILE, SECTION FORCES, OUTPUT=2D
S
*END STEP
